NAME          DCAP_2_4_3_500_SS167
ROWS
 N  OBJ
 L  CON1
 L  CON2
 L  CON3
 L  CON4
 L  CON5
 L  CON6
 L  CON7
 L  CON8
 L  CON9
 L  CON10
 L  CON11
 L  CON12
 E  CON13
 E  CON14
 E  CON15
 E  CON16
 E  CON17
 E  CON18
 E  CON19
 E  CON20
 E  CON21
 E  CON22
 E  CON23
 E  CON24
COLUMNS
    x[1,1]    OBJ       6.180167      CON1      1.000000    
    x[1,1]    CON7      -1.000000     CON8      -1.000000   
    x[1,1]    CON9      -1.000000   
    x[1,2]    OBJ       6.563535      CON2      1.000000    
    x[1,2]    CON8      -1.000000     CON9      -1.000000   
    x[1,3]    OBJ       7.443064      CON3      1.000000    
    x[1,3]    CON9      -1.000000   
    x[2,1]    OBJ       6.732585      CON4      1.000000    
    x[2,1]    CON10     -1.000000     CON11     -1.000000   
    x[2,1]    CON12     -1.000000   
    x[2,2]    OBJ       5.039546      CON5      1.000000    
    x[2,2]    CON11     -1.000000     CON12     -1.000000   
    x[2,3]    OBJ       6.054841      CON6      1.000000    
    x[2,3]    CON12     -1.000000   
    MARKER    'MARKER'                'INTORG'
    u[1,1]    OBJ       48.076654     CON1      -1.000000   
    u[1,2]    OBJ       20.066487     CON2      -1.000000   
    u[1,3]    OBJ       32.230043     CON3      -1.000000   
    u[2,1]    OBJ       49.996186     CON4      -1.000000   
    u[2,2]    OBJ       49.466655     CON5      -1.000000   
    u[2,3]    OBJ       27.484319     CON6      -1.000000   
    y[1,1,1]  OBJ       8.162117      CON7      0.746584    
    y[1,1,1]  CON13     1.000000    
    y[1,1,2]  OBJ       7.726288      CON8      0.516781    
    y[1,1,2]  CON14     1.000000    
    y[1,1,3]  OBJ       9.141250      CON9      0.544564    
    y[1,1,3]  CON15     1.000000    
    y[1,2,1]  OBJ       6.808295      CON7      1.033082    
    y[1,2,1]  CON16     1.000000    
    y[1,2,2]  OBJ       9.650704      CON8      1.282186    
    y[1,2,2]  CON17     1.000000    
    y[1,2,3]  OBJ       5.128843      CON9      0.841991    
    y[1,2,3]  CON18     1.000000    
    y[1,3,1]  OBJ       5.721794      CON7      1.469477    
    y[1,3,1]  CON19     1.000000    
    y[1,3,2]  OBJ       8.180031      CON8      0.706537    
    y[1,3,2]  CON20     1.000000    
    y[1,3,3]  OBJ       7.338755      CON9      0.515140    
    y[1,3,3]  CON21     1.000000    
    y[1,4,1]  OBJ       5.941617      CON7      1.259796    
    y[1,4,1]  CON22     1.000000    
    y[1,4,2]  OBJ       6.782321      CON8      0.961578    
    y[1,4,2]  CON23     1.000000    
    y[1,4,3]  OBJ       6.676044      CON9      1.366689    
    y[1,4,3]  CON24     1.000000    
    y[2,1,1]  OBJ       6.568017      CON10     0.746584    
    y[2,1,1]  CON13     1.000000    
    y[2,1,2]  OBJ       6.221816      CON11     0.516781    
    y[2,1,2]  CON14     1.000000    
    y[2,1,3]  OBJ       5.898002      CON12     0.544564    
    y[2,1,3]  CON15     1.000000    
    y[2,2,1]  OBJ       8.022413      CON10     1.033082    
    y[2,2,1]  CON16     1.000000    
    y[2,2,2]  OBJ       9.833297      CON11     1.282186    
    y[2,2,2]  CON17     1.000000    
    y[2,2,3]  OBJ       6.654351      CON12     0.841991    
    y[2,2,3]  CON18     1.000000    
    y[2,3,1]  OBJ       8.026377      CON10     1.469477    
    y[2,3,1]  CON19     1.000000    
    y[2,3,2]  OBJ       6.983730      CON11     0.706537    
    y[2,3,2]  CON20     1.000000    
    y[2,3,3]  OBJ       5.774507      CON12     0.515140    
    y[2,3,3]  CON21     1.000000    
    y[2,4,1]  OBJ       6.496060      CON10     1.259796    
    y[2,4,1]  CON22     1.000000    
    y[2,4,2]  OBJ       9.314555      CON11     0.961578    
    y[2,4,2]  CON23     1.000000    
    y[2,4,3]  OBJ       6.997428      CON12     1.366689    
    y[2,4,3]  CON24     1.000000    
    z[1,1]    OBJ       944.966675    CON13     1.000000    
    z[1,2]    OBJ       862.295018    CON14     1.000000    
    z[1,3]    OBJ       719.271244    CON15     1.000000    
    z[2,1]    OBJ       649.188953    CON16     1.000000    
    z[2,2]    OBJ       714.261058    CON17     1.000000    
    z[2,3]    OBJ       868.704840    CON18     1.000000    
    z[3,1]    OBJ       921.006778    CON19     1.000000    
    z[3,2]    OBJ       590.777381    CON20     1.000000    
    z[3,3]    OBJ       561.050306    CON21     1.000000    
    z[4,1]    OBJ       976.490325    CON22     1.000000    
    z[4,2]    OBJ       802.243626    CON23     1.000000    
    z[4,3]    OBJ       675.242780    CON24     1.000000    
    MARKER    'MARKER'                 'INTEND'
RHS
    RHS       CON1      -0.000000     CON2      -0.000000   
    RHS       CON3      -0.000000     CON4      -0.000000   
    RHS       CON5      -0.000000     CON6      -0.000000   
    RHS       CON7      -0.000000     CON8      -0.000000   
    RHS       CON9      -0.000000     CON10     -0.000000   
    RHS       CON11     -0.000000     CON12     -0.000000   
    RHS       CON13     1.000000      CON14     1.000000    
    RHS       CON15     1.000000      CON16     1.000000    
    RHS       CON17     1.000000      CON18     1.000000    
    RHS       CON19     1.000000      CON20     1.000000    
    RHS       CON21     1.000000      CON22     1.000000    
    RHS       CON23     1.000000      CON24     1.000000    
BOUNDS
 BV BOUND     u[1,1]  
 BV BOUND     u[1,2]  
 BV BOUND     u[1,3]  
 BV BOUND     u[2,1]  
 BV BOUND     u[2,2]  
 BV BOUND     u[2,3]  
 BV BOUND     y[1,1,1]
 BV BOUND     y[1,1,2]
 BV BOUND     y[1,1,3]
 BV BOUND     y[1,2,1]
 BV BOUND     y[1,2,2]
 BV BOUND     y[1,2,3]
 BV BOUND     y[1,3,1]
 BV BOUND     y[1,3,2]
 BV BOUND     y[1,3,3]
 BV BOUND     y[1,4,1]
 BV BOUND     y[1,4,2]
 BV BOUND     y[1,4,3]
 BV BOUND     y[2,1,1]
 BV BOUND     y[2,1,2]
 BV BOUND     y[2,1,3]
 BV BOUND     y[2,2,1]
 BV BOUND     y[2,2,2]
 BV BOUND     y[2,2,3]
 BV BOUND     y[2,3,1]
 BV BOUND     y[2,3,2]
 BV BOUND     y[2,3,3]
 BV BOUND     y[2,4,1]
 BV BOUND     y[2,4,2]
 BV BOUND     y[2,4,3]
 BV BOUND     z[1,1]  
 BV BOUND     z[1,2]  
 BV BOUND     z[1,3]  
 BV BOUND     z[2,1]  
 BV BOUND     z[2,2]  
 BV BOUND     z[2,3]  
 BV BOUND     z[3,1]  
 BV BOUND     z[3,2]  
 BV BOUND     z[3,3]  
 BV BOUND     z[4,1]  
 BV BOUND     z[4,2]  
 BV BOUND     z[4,3]  
ENDATA
